5,3	0,0	5,4	12,2	0,0	0,0	0,0	0,0	0,0	17,4
9,7	12,5	0,0	19,8	8,6	0,0	0,0	6,2	0,0	0,0
0,0	0,0	11,0	0,0	16,2	15,4	0,0	0,0	7,3	0,0
19,1	0,0	5,7	0,0	0,0	0,0	7,9	0,0	0,0	0,0
0,0	18,6	0,0	14,6	17,1	0,0	0,0	17,8	0,0	0,0
0,0	14,8	15,3	0,0	11,0	19,9	0,0	0,0	6,5	0,0
0,0	15,0	0,0	10,3	0,0	0,0	10,9	0,0	0,0	10,4
14,4	0,0	15,3	0,0	0,0	0,0	0,0	0,0	0,0	9,8
0,0	12,5	0,0	10,9	19,7	0,0	0,0	15,5	0,0	0,0
0,0	0,0	5,8	0,0	0,0	15,1	16,8	0,0	0,0	17,4
									
3,3	4,7	4,4	4,3	3,0	4,7	3,4	4,7	3,9	4,3
